100
32
15
6
29
17
15
30
14
15
28
28
8
24
17
30
13
15
5
31
11
31
8
12
19
8
2
7
15
16
12
26
12
12
2
1
26
5
3
29
5
27
16
25
19
23
10
12
32
29
9
25
9
10
16
14
11
6
14
27
15
26
16
15
19
1
10
13
11
10
22
13
11
7
6
11
7
11
14
28
21
15
8
3
3
8
31
4
20
14
18
17
3
1
10
13
17
18
7
5
6
31